scip/project/solution/eil33-2.sol

=obj=                     934.007915999999
x1662                                               1 	(obj:264.581884)
x2299                                               1 	(obj:184.955441)
x2590                                               1 	(obj:249.771832)
x4020                                               1 	(obj:234.698759)
