scip/project/logs/eil33-2.log
SCIP version 6.0.1 [precision: 8 byte] [memory: block] [mode: optimized] [LP solver: SoPlex 4.0.1] [GitHash: a27ecc0]
Copyright (C) 2002-2019 Konrad-Zuse-Zentrum fuer Informationstechnik Berlin (ZIB)

External codes: 
  Readline 8.0         GNU library for command line editing (gnu.org/s/readline)
  SoPlex 4.0.1         Linear Programming Solver developed at Zuse Institute Berlin (soplex.zib.de) [GitHash: e89d7d5]
  CppAD 20180000.0     Algorithmic Differentiation of C++ algorithms developed by B. Bell (www.coin-or.org/CppAD)
  ZLIB 1.2.11          General purpose compression library by J. Gailly and M. Adler (zlib.net)
  GMP 6.1.2            GNU Multiple Precision Arithmetic Library developed by T. Granlund (gmplib.org)

user parameter file <scip.set> not found - using default parameters


read problem <eil33-2.mps>
============

original problem has 4516 variables (4516 bin, 0 int, 0 impl, 0 cont) and 32 constraints

presolving:
(round 1, exhaustive) 0 del vars, 0 del conss, 0 add conss, 0 chg bounds, 0 chg sides, 0 chg coeffs, 32 upgd conss, 0 impls, 32 clqs
(round 2, medium)     32 del vars, 0 del conss, 0 add conss, 0 chg bounds, 32 chg sides, 32 chg coeffs, 32 upgd conss, 0 impls, 32 clqs
   (0.3s) probing: 51/4484 (1.1%) - 0 fixings, 0 aggregations, 0 implications, 0 bound changes
   (0.3s) probing aborted: 50/50 successive totally useless probings
presolving (3 rounds: 3 fast, 3 medium, 2 exhaustive):
 32 deleted vars, 0 deleted constraints, 0 added constraints, 0 tightened bounds, 0 added holes, 32 changed sides, 32 changed coefficients
 0 implications, 32 cliques
presolved problem has 4484 variables (4484 bin, 0 int, 0 impl, 0 cont) and 32 constraints
     32 constraints of type <setppc>
Presolving Time: 0.29

 time | node  | left  |LP iter|LP it/n| mem |mdpt |frac |vars |cons |cols |rows |cuts |confs|strbr|  dualbound   | primalbound  |  gap   
t 0.3s|     1 |     0 |     0 |     - |  37M|   0 |   - |4484 |  32 |   0 |   0 |   0 |   0 |   0 |-5.984556e+06 | 5.050240e+03 |    Inf 
Q 0.3s|     1 |     0 |     0 |     - |  40M|   0 |   - |4484 |  32 |4484 |  32 |   0 |   0 |   0 |-5.984556e+06 | 1.838245e+03 |    Inf 
  0.6s|     1 |     0 |   871 |     - |  42M|   0 |  30 |4484 |  32 |4484 |  32 |   0 |   0 |   0 | 8.112790e+02 | 1.838245e+03 | 126.59%
  0.9s|     1 |     0 |   905 |     - |  43M|   0 |  31 |4484 |  32 |4484 |  34 |   2 |   0 |   0 | 8.128384e+02 | 1.838245e+03 | 126.15%
  0.9s|     1 |     0 |   927 |     - |  44M|   0 |  28 |4484 |  32 |4484 |  35 |   3 |   0 |   0 | 8.136654e+02 | 1.838245e+03 | 125.92%
  1.0s|     1 |     0 |   944 |     - |  44M|   0 |  27 |4484 |  32 |4484 |  36 |   4 |   0 |   0 | 8.138204e+02 | 1.838245e+03 | 125.88%
  1.1s|     1 |     0 |   977 |     - |  44M|   0 |  34 |4484 |  32 |4484 |  38 |   6 |   0 |   0 | 8.143770e+02 | 1.838245e+03 | 125.72%
  1.1s|     1 |     0 |   994 |     - |  45M|   0 |  37 |4484 |  32 |4484 |  41 |   9 |   0 |   0 | 8.147969e+02 | 1.838245e+03 | 125.61%
  1.2s|     1 |     0 |  1019 |     - |  45M|   0 |  40 |4484 |  32 |4484 |  43 |  11 |   0 |   0 | 8.150830e+02 | 1.838245e+03 | 125.53%
  1.2s|     1 |     0 |  1035 |     - |  45M|   0 |  40 |4484 |  32 |4484 |  45 |  13 |   0 |   0 | 8.153699e+02 | 1.838245e+03 | 125.45%
G 1.2s|     1 |     0 |  1035 |     - |  45M|   0 |   - |4484 |  32 |4484 |  45 |   0 |   0 |   0 | 8.153699e+02 | 1.330323e+03 |  63.16%
  1.3s|     1 |     0 |  1056 |     - |  45M|   0 |  43 |4484 |  32 |4484 |  47 |  15 |   0 |   0 | 8.154833e+02 | 1.330323e+03 |  63.13%
  1.4s|     1 |     0 |  1076 |     - |  47M|   0 |  44 |4484 |  32 |4484 |  48 |  16 |   0 |   0 | 8.155919e+02 | 1.330323e+03 |  63.11%
  1.4s|     1 |     0 |  1111 |     - |  47M|   0 |  45 |4484 |  32 |4484 |  50 |  18 |   0 |   0 | 8.158428e+02 | 1.330323e+03 |  63.06%
  1.5s|     1 |     0 |  1137 |     - |  47M|   0 |  45 |4484 |  32 |4484 |  51 |  19 |   0 |   0 | 8.159658e+02 | 1.330323e+03 |  63.04%
 time | node  | left  |LP iter|LP it/n| mem |mdpt |frac |vars |cons |cols |rows |cuts |confs|strbr|  dualbound   | primalbound  |  gap   
  1.6s|     1 |     0 |  1163 |     - |  47M|   0 |  47 |4484 |  32 |4484 |  52 |  20 |   0 |   0 | 8.161999e+02 | 1.330323e+03 |  62.99%
  1.6s|     1 |     0 |  1211 |     - |  48M|   0 |  42 |4484 |  32 |4484 |  55 |  23 |   0 |   0 | 8.164538e+02 | 1.330323e+03 |  62.94%
  1.7s|     1 |     0 |  1248 |     - |  48M|   0 |  49 |4484 |  32 |4484 |  58 |  26 |   0 |   0 | 8.166019e+02 | 1.330323e+03 |  62.91%
u 1.7s|     1 |     0 |  1319 |     - |  49M|   0 |   - |4484 |  32 |4484 |  58 |   0 |   0 |   0 | 8.166019e+02 | 1.023510e+03 |  25.34%
  1.9s|     1 |     0 |  1319 |     - |  49M|   0 |  49 |4484 |  32 |4484 |  58 |  26 |   0 |   0 | 8.166019e+02 | 1.023510e+03 |  25.34%
  1.9s|     1 |     0 |  1346 |     - |  49M|   0 |  49 |4484 |  32 |4484 |  59 |  27 |   0 |   0 | 8.167655e+02 | 1.023510e+03 |  25.31%
  2.6s|     1 |     0 |  1356 |     - |  50M|   0 |  46 |4484 |  32 |4484 |  59 |  27 |   0 |  25 | 8.170222e+02 | 1.023510e+03 |  25.27%
  2.7s|     1 |     0 |  1393 |     - |  51M|   0 |  45 |4484 |  32 |4484 |  61 |  29 |   0 |  25 | 8.170222e+02 | 1.023510e+03 |  25.27%
  2.7s|     1 |     0 |  1412 |     - |  51M|   0 |  49 |4484 |  32 |4484 |  62 |  30 |   0 |  25 | 8.170847e+02 | 1.023510e+03 |  25.26%
  2.7s|     1 |     0 |  1412 |     - |  51M|   0 |  49 |4484 |  32 |4484 |  62 |  30 |   0 |  25 | 8.170847e+02 | 1.023510e+03 |  25.26%
  3.5s|     1 |     0 |  1423 |     - |  53M|   0 |  49 |4484 |  32 |4484 |  62 |  30 |   0 |  50 | 8.171698e+02 | 1.023510e+03 |  25.25%
  3.5s|     1 |     0 |  1464 |     - |  53M|   0 |  46 |4484 |  32 |4484 |  63 |  33 |   0 |  50 | 8.173725e+02 | 1.023510e+03 |  25.22%
  3.5s|     1 |     0 |  1484 |     - |  53M|   0 |  46 |4484 |  32 |4484 |  64 |  34 |   0 |  50 | 8.174283e+02 | 1.023510e+03 |  25.21%
  4.1s|     1 |     0 |  1508 |     - |  53M|   0 |  46 |4484 |  32 |4484 |  64 |  34 |   0 |  70 | 8.175087e+02 | 1.023510e+03 |  25.20%
  4.2s|     1 |     0 |  1552 |     - |  54M|   0 |  48 |4484 |  32 |4484 |  67 |  37 |   0 |  70 | 8.177685e+02 | 1.023510e+03 |  25.16%
 time | node  | left  |LP iter|LP it/n| mem |mdpt |frac |vars |cons |cols |rows |cuts |confs|strbr|  dualbound   | primalbound  |  gap   
  4.2s|     1 |     0 |  1590 |     - |  54M|   0 |  53 |4484 |  32 |4484 |  68 |  38 |   0 |  70 | 8.178758e+02 | 1.023510e+03 |  25.14%
  4.7s|     1 |     0 |  1605 |     - |  54M|   0 |  47 |4484 |  32 |4484 |  68 |  38 |   0 |  86 | 8.179472e+02 | 1.023510e+03 |  25.13%
  4.8s|     1 |     0 |  1630 |     - |  54M|   0 |  47 |4484 |  32 |4484 |  61 |  40 |   0 |  86 | 8.180212e+02 | 1.023510e+03 |  25.12%
  4.8s|     1 |     0 |  1672 |     - |  54M|   0 |  47 |4484 |  32 |4484 |  62 |  41 |   0 |  86 | 8.181122e+02 | 1.023510e+03 |  25.11%
  5.0s|     1 |     2 |  1672 |     - |  55M|   0 |  47 |4484 |  32 |4484 |  62 |  41 |   0 |  92 | 8.181906e+02 | 1.023510e+03 |  25.09%
   Deactivated symmetry handling methods, since SCIP was built without symmetry detector (SYM=none).
*17.3s|    38 |     1 |  8637 | 191.3 |  56M|  19 |   - |4484 |  39 |4484 |  56 |  43 |   8 |1093 | 8.199960e+02 | 1.022139e+03 |  24.65%
*27.7s|    64 |     1 | 14108 | 199.2 |  58M|  31 |   - |4484 |  50 |4484 |  58 |  47 |  21 |2412 | 8.224095e+02 | 1.000241e+03 |  21.62%
*29.6s|    82 |     1 | 15622 | 173.6 |  58M|  39 |   - |4484 |  34 |4484 |  58 |  47 |  21 |2611 | 8.237143e+02 | 9.926204e+02 |  20.51%
 32.6s|   100 |     1 | 18114 | 167.2 |  59M|  47 |   - |4484 |  35 |4484 |  59 |  49 |  23 |3001 | 8.242331e+02 | 9.926204e+02 |  20.43%
*37.4s|   136 |     1 | 22130 | 152.4 |  59M|  65 |   - |4484 |  38 |4484 |  60 |  53 |  26 |3591 | 8.262631e+02 | 9.898278e+02 |  19.80%
*41.3s|   154 |     1 | 24691 | 151.2 |  59M|  74 |   - |4484 |  36 |4484 |  62 |  55 |  28 |4076 | 8.282232e+02 | 9.893864e+02 |  19.46%
 46.8s|   200 |     1 | 29053 | 138.2 |  60M|  95 |   - |4484 |  38 |4484 |  63 |  58 |  31 |4767 | 8.296128e+02 | 9.893864e+02 |  19.26%
*47.5s|   210 |     1 | 29919 | 135.7 |  60M|  95 |   - |4484 |  38 |4484 |  62 |  58 |  31 |4854 | 8.302045e+02 | 9.876741e+02 |  18.97%
 64.5s|   300 |     1 | 42271 | 136.2 |  61M| 140 |   - |4484 |  44 |4484 |  62 |  59 |  39 |7038 | 8.397991e+02 | 9.876741e+02 |  17.61%
*71.0s|   362 |     1 | 47186 | 126.4 |  61M| 169 |   - |4484 |  45 |4484 |  62 |  59 |  41 |7902 | 8.446168e+02 | 9.340079e+02 |  10.58%
 time | node  | left  |LP iter|LP it/n| mem |mdpt |frac |vars |cons |cols |rows |cuts |confs|strbr|  dualbound   | primalbound  |  gap   
 73.4s|   400 |     1 | 49225 | 119.5 |  62M| 188 |   - |4484 |  39 |4484 |  62 |  59 |  42 |8167 | 8.490671e+02 | 9.340079e+02 |  10.00%
 77.4s|   500 |     1 | 53633 | 104.4 |  62M| 238 |   - |4484 |  40 |4484 |  62 |  60 |  45 |8593 | 8.582827e+02 | 9.340079e+02 |   8.82%
 80.7s|   600 |     1 | 58017 |  94.3 |  62M| 288 |   - |4484 |  41 |4484 |  62 |  60 |  49 |8932 | 8.676067e+02 | 9.340079e+02 |   7.65%
 85.1s|   700 |     1 | 62224 |  86.8 |  62M| 338 |   - |4484 |  43 |4484 |  62 |  60 |  58 |9456 | 8.781785e+02 | 9.340079e+02 |   6.36%

SCIP Status        : problem is solved [optimal solution found]
Solving Time (sec) : 87.89
Solving Nodes      : 743
Primal Bound       : +9.34007916000000e+02 (263 solutions)
Dual Bound         : +9.34007916000000e+02
Gap                : 0.00 %


